%mem=24GB
%nprocshared=12
# b3lyp/3-21g nosymm guess=(local,save) pop=(full) geom=connectivity punch=mo iop(3/33=1)

Title Card Required

0 2
 C                                                    -3.68668200    4.83756500   -0.58509300
 C                                                    -2.64372700    3.83243300   -0.69694300
 C                                                    -3.06212300    2.59089300   -0.29294000
 C                                                    -4.86521900    4.35854700   -0.10802400
 C                                                    -1.28922800    4.17505700   -1.22409300
 C                                                    -0.48626200    5.00017200   -0.20524800
 H                                                    -1.39148300    4.73913600   -2.17520500
 H                                                    -0.72736500    3.25383400   -1.48872500
 C                                                     0.90107100    5.36133100   -0.75071400
 H                                                    -0.38596600    4.42881600    0.73905800
 H                                                    -1.04337800    5.91979500    0.05833000
 C                                                     1.70224000    6.18612300    0.26538600
 H                                                     0.80061400    5.92528200   -1.69791000
 H                                                     1.45662100    4.43793400   -1.00639400
 C                                                     3.09150500    6.55050400   -0.27687400
 H                                                     1.80594900    5.62132700    1.21209900
 H                                                     1.14798100    7.10811100    0.52607400
 C                                                     3.89335100    7.37121600    0.73084200
 H                                                     2.98980100    7.11685700   -1.22322600
 H                                                     3.64834400    5.62836600   -0.53474200
 H                                                     3.38761200    8.31103800    0.97983400
 H                                                     4.88320800    7.62585000    0.33611100
 H                                                     4.04484900    6.82339400    1.66796000
 H                                                    -3.50318000    5.86571500   -0.86815600
 C                                                    -2.39042500    1.33157800   -0.23050800
 S                                                    -0.93261700    1.17150900    0.73209900
 C                                                    -2.70845500    0.13274000   -0.79862100
 H                                                    -3.56223000   -0.03638100   -1.44243000
 C                                                    -1.78307000   -0.93557500   -0.47805800
 C                                                    -0.76265700   -0.52951000    0.34282300
 H                                                    -1.04057300   -2.91130500   -0.90407200
 C                                                    -1.96499100   -2.30936500   -1.03588100
 H                                                    -2.99020500   -3.08228800    0.72071400
 H                                                    -2.42050800   -5.03025200   -0.80094300
 C                                                    -3.15279800   -3.02676100   -0.37407500
 C                                                    -3.34319200   -4.43581600   -0.94931700
 H                                                    -3.80466300   -7.15619400   -0.71857200
 H                                                    -2.12110100   -2.24752900   -2.13362200
 H                                                    -4.38215700   -5.20669400    0.80144900
 C                                                    -4.53313300   -5.14936700   -0.29392200
 H                                                    -4.07620700   -2.43122300   -0.51026700
 H                                                    -3.49412000   -4.38053500   -2.04451400
 C                                                    -4.72691100   -6.56070100   -0.86614800
 H                                                    -5.77405900   -7.38072900    0.86486600
 H                                                    -4.87892600   -6.50522000   -1.96180400
 C                                                    -5.91042400   -7.27530200   -0.21749800
 H                                                    -5.45653200   -4.55623100   -0.43820400
 H                                                    -6.04079900   -8.28140400   -0.63121800
 H                                                    -6.84783800   -6.73055000   -0.37726900
 S                                                    -4.73667200    2.65712100    0.22309100
 H                                                    -5.78376400    4.89246700    0.06606900

 1 2 1.0 4 2.0 24 1.0
 2 3 2.0 5 1.0
 3 25 1.5 50 1.0
 4 50 1.0 51 1.0
 5 6 1.0 7 1.0 8 1.0
 6 9 1.0 10 1.0 11 1.0
 7
 8
 9 12 1.0 13 1.0 14 1.0
 10
 11
 12 15 1.0 16 1.0 17 1.0
 13
 14
 15 18 1.0 19 1.0 20 1.0
 16
 17
 18 21 1.0 22 1.0 23 1.0
 19
 20
 21
 22
 23
 24
 25 26 1.0 27 2.0
 26 30 1.0
 27 28 1.0 29 1.0
 28
 29 30 2.0 32 1.0
 30
 31 32 1.0
 32 35 1.0 38 1.0
 33 35 1.0
 34 36 1.0
 35 36 1.0 41 1.0
 36 40 1.0 42 1.0
 37 43 1.0
 38
 39 40 1.0
 40 43 1.0 47 1.0
 41
 42
 43 45 1.0 46 1.0
 44 46 1.0
 45
 46 48 1.0 49 1.0
 47
 48
 49
 50
 51


