%mem=24GB
%nprocshared=12
# b3lyp/3-21g nosymm guess=(local,save) pop=(full) geom=connectivity punch=mo iop(3/33=1)

Title Card Required

0 1
 C(PDBName=C,ResName=UNL,ResNum=1)                     0.35108700   -1.23151000    0.89722100
 S(PDBName=S,ResName=UNL,ResNum=1)                     0.07667100   -2.64104800    1.91021700
 C(PDBName=C,ResName=UNL,ResNum=1)                     1.68886600   -0.98020600    0.80796000
 H(PDBName=H,ResName=UNL,ResNum=1)                     2.12987300   -0.17023900    0.24313400
 C(PDBName=C,ResName=UNL,ResNum=1)                     2.50562900   -1.92376500    1.54873900
 C(PDBName=C,ResName=UNL,ResNum=1)                     1.77436000   -2.87959300    2.19125200
 H(PDBName=H,ResName=UNL,ResNum=1)                     4.41133000   -2.37383300    2.43915700
 C(PDBName=C,ResName=UNL,ResNum=1)                     3.99682200   -1.81996700    1.57191300
 H(PDBName=H,ResName=UNL,ResNum=1)                     4.30317000   -3.41421000    0.12405200
 H(PDBName=H,ResName=UNL,ResNum=1)                     6.55117500   -2.79748600    1.14103000
 H(PDBName=H,ResName=UNL,ResNum=1)                     2.12768200   -3.69209700    2.79968600
 C(PDBName=C,ResName=UNL,ResNum=1)                     4.60672500   -2.35862700    0.26755600
 C(PDBName=C,ResName=UNL,ResNum=1)                     6.13617400   -2.24507000    0.27590600
 H(PDBName=H,ResName=UNL,ResNum=1)                     8.68943400   -3.22556400   -0.15695400
 H(PDBName=H,ResName=UNL,ResNum=1)                     4.29879600   -0.76284000    1.72567900
 H(PDBName=H,ResName=UNL,ResNum=1)                     6.44478000   -3.84076100   -1.17294300
 C(PDBName=C,ResName=UNL,ResNum=1)                     6.74275900   -2.78469800   -1.02622700
 H(PDBName=H,ResName=UNL,ResNum=1)                     4.18817800   -1.80693400   -0.59684400
 H(PDBName=H,ResName=UNL,ResNum=1)                     6.43571600   -1.18911700    0.42091200
 C(PDBName=C,ResName=UNL,ResNum=1)                     8.27387200   -2.67264700   -1.02206500
 H(PDBName=H,ResName=UNL,ResNum=1)                     8.63646300   -4.26516300   -2.47074400
 H(PDBName=H,ResName=UNL,ResNum=1)                     8.57366200   -1.61618200   -0.87782900
 C(PDBName=C,ResName=UNL,ResNum=1)                     8.88262600   -3.20847400   -2.31600300
 H(PDBName=H,ResName=UNL,ResNum=1)                     6.32912800   -2.23393000   -1.89287500
 H(PDBName=H,ResName=UNL,ResNum=1)                     9.97505300   -3.12463600   -2.30416500
 H(PDBName=H,ResName=UNL,ResNum=1)                     8.52078800   -2.65693800   -3.19120300
 C                                                    -3.68668200    4.83756500   -0.58509300
 C                                                    -2.64372700    3.83243300   -0.69694300
 C                                                    -3.06212300    2.59089300   -0.29294000
 C                                                    -4.86521900    4.35854700   -0.10802400
 C                                                    -1.28922800    4.17505700   -1.22409300
 C                                                    -0.48626200    5.00017200   -0.20524800
 H                                                    -1.39148300    4.73913600   -2.17520500
 H                                                    -0.72736500    3.25383400   -1.48872500
 C                                                     0.90107100    5.36133100   -0.75071400
 H                                                    -0.38596600    4.42881600    0.73905800
 H                                                    -1.04337800    5.91979500    0.05833000
 C                                                     1.70224000    6.18612300    0.26538600
 H                                                     0.80061400    5.92528200   -1.69791000
 H                                                     1.45662100    4.43793400   -1.00639400
 C                                                     3.09150500    6.55050400   -0.27687400
 H                                                     1.80594900    5.62132700    1.21209900
 H                                                     1.14798100    7.10811100    0.52607400
 C                                                     3.89335100    7.37121600    0.73084200
 H                                                     2.98980100    7.11685700   -1.22322600
 H                                                     3.64834400    5.62836600   -0.53474200
 H                                                     3.38761200    8.31103800    0.97983400
 H                                                     4.88320800    7.62585000    0.33611100
 H                                                     4.04484900    6.82339400    1.66796000
 H                                                    -3.50318000    5.86571500   -0.86815600
 C                                                    -2.39042500    1.33157800   -0.23050800
 S                                                    -0.93261700    1.17150900    0.73209900
 C                                                    -2.70845500    0.13274000   -0.79862100
 H                                                    -3.56223000   -0.03638100   -1.44243000
 C                                                    -1.78307000   -0.93557500   -0.47805800
 C                                                    -0.76265700   -0.52951000    0.34282300
 H                                                    -1.04057300   -2.91130500   -0.90407200
 C                                                    -1.96499100   -2.30936500   -1.03588100
 H                                                    -2.99020500   -3.08228800    0.72071400
 H                                                    -2.42050800   -5.03025200   -0.80094300
 C                                                    -3.15279800   -3.02676100   -0.37407500
 C                                                    -3.34319200   -4.43581600   -0.94931700
 H                                                    -3.80466300   -7.15619400   -0.71857200
 H                                                    -2.12110100   -2.24752900   -2.13362200
 H                                                    -4.38215700   -5.20669400    0.80144900
 C                                                    -4.53313300   -5.14936700   -0.29392200
 H                                                    -4.07620700   -2.43122300   -0.51026700
 H                                                    -3.49412000   -4.38053500   -2.04451400
 C                                                    -4.72691100   -6.56070100   -0.86614800
 H                                                    -5.77405900   -7.38072900    0.86486600
 H                                                    -4.87892600   -6.50522000   -1.96180400
 C                                                    -5.91042400   -7.27530200   -0.21749800
 H                                                    -5.45653200   -4.55623100   -0.43820400
 H                                                    -6.04079900   -8.28140400   -0.63121800
 H                                                    -6.84783800   -6.73055000   -0.37726900
 S                                                    -4.73667200    2.65712100    0.22309100
 H                                                    -5.78376400    4.89246700    0.06606900

 1 2 1.0 3 2.0 56 1.5
 2 6 1.0
 3 4 1.0 5 1.0
 4
 5 6 2.0 8 1.0
 6 11 1.0
 7 8 1.0
 8 12 1.0 15 1.0
 9 12 1.0
 10 13 1.0
 11
 12 13 1.0 18 1.0
 13 17 1.0 19 1.0
 14 20 1.0
 15
 16 17 1.0
 17 20 1.0 24 1.0
 18
 19
 20 22 1.0 23 1.0
 21 23 1.0
 22
 23 25 1.0 26 1.0
 24
 25
 26
 27 28 1.0 30 2.0 50 1.0
 28 29 2.0 31 1.0
 29 51 1.5 76 1.0
 30 76 1.0 77 1.0
 31 32 1.0 33 1.0 34 1.0
 32 35 1.0 36 1.0 37 1.0
 33
 34
 35 38 1.0 39 1.0 40 1.0
 36
 37
 38 41 1.0 42 1.0 43 1.0
 39
 40
 41 44 1.0 45 1.0 46 1.0
 42
 43
 44 47 1.0 48 1.0 49 1.0
 45
 46
 47
 48
 49
 50
 51 52 1.0 53 2.0
 52 56 1.0
 53 54 1.0 55 1.0
 54
 55 56 2.0 58 1.0
 56
 57 58 1.0
 58 61 1.0 64 1.0
 59 61 1.0
 60 62 1.0
 61 62 1.0 67 1.0
 62 66 1.0 68 1.0
 63 69 1.0
 64
 65 66 1.0
 66 69 1.0 73 1.0
 67
 68
 69 71 1.0 72 1.0
 70 72 1.0
 71
 72 74 1.0 75 1.0
 73
 74
 75
 76
 77


